50
    38    99    95    36    97    83    57     3    68    57     8    39    91    47    70    17    92    95     2    72    92    57     7     8    99     7    28    92    14    32    46    57    27    37    85     4    20    41    10    98    64    79    25    68    23     4    77    11    49    80
     4     7     4     9     6     8     4     7    10    10     1     3     7     3     9     2     2     4     5     8     9     2     7     6     9     2     6     8    10     4     5     8     9     3     9     9     6     6     6     4     3     9     4     4     5     9     7     2     7     9
  2001  2105  2199  2166  2185  1766  2202  2134  2107  1824  1900  2060  2100  1925  1912  2102  1793  2156  1877  2042  1871  1850  1847  1960  2096  2124  1925  2150  2073  2184  2154  1799  1761  1864  2164  1904  2241  1929  2055  1945  2232  2118  2044  1809  1858  1945  1852  1958  2159  2241
